p cnf 12 26
-1 -4 0
-2 -3 0
-1 -8 0
-2 -7 0
-1 -10 0
-2 -9 0
-3 -10 0
-4 -9 0
-3 -12 0
-4 -11 0
-5 -8 0
-6 -7 0
-5 -10 0
-6 -9 0
-5 -12 0
-6 -11 0
-9 -12 0
-10 -11 0
-1 -2 0
-3 -4 0
-5 -6 0
-7 -8 0
-9 -10 0
-11 -12 0
1 3 5 7 9 11 0
2 4 6 8 10 12 0
